
Welcome to IBM(R) ILOG(R) CPLEX(R) Interactive Optimizer 22.1.1.0
  with Simplex, Mixed Integer & Barrier Optimizers
5725-A06 5725-A29 5724-Y48 5724-Y49 5724-Y54 5724-Y55 5655-Y21
Copyright IBM Corp. 1988, 2022.  All Rights Reserved.

Type 'help' for a list of available commands.
Type 'help' followed by a command name for more
information on commands.

CPLEX> Selected objective sense:  MINIMIZE
Selected objective  name:  00000000
Selected RHS        name:  RHS1
Selected bound      name:  BOUND
Problem 'ee.mps' read.
Read time = 0.03 sec. (3.14 ticks)
CPLEX> New value for time limit in seconds: 7200
CPLEX> New value for parallel optimization mode: -1
CPLEX> New value for default parallel thread count: 40
CPLEX> New value for mixed integer optimality gap tolerance: 1e-13
CPLEX> Version identifier: 22.1.1.0 | 2022-11-28 | 9160aff4d
CPXPARAM_Threads                                 40
CPXPARAM_Parallel                                -1
CPXPARAM_TimeLimit                               7200
CPXPARAM_MIP_Tolerances_MIPGap                   1e-13
Found incumbent of value 0.000000 after 0.00 sec. (0.31 ticks)
Tried aggregator 2 times.
MIP Presolve eliminated 184 rows and 2745 columns.
MIP Presolve modified 5862 coefficients.
Aggregator did 713 substitutions.
Reduced MIP has 3624 rows, 7744 columns, and 28666 nonzeros.
Reduced MIP has 7744 binaries, 0 generals, 0 SOSs, and 0 indicators.
Presolve time = 0.07 sec. (68.81 ticks)
Probing time = 0.03 sec. (5.32 ticks)
Tried aggregator 1 time.
Detecting symmetries...
Reduced MIP has 3624 rows, 7744 columns, and 28666 nonzeros.
Reduced MIP has 7744 binaries, 0 generals, 0 SOSs, and 0 indicators.
Presolve time = 0.03 sec. (21.95 ticks)
Probing time = 0.02 sec. (5.10 ticks)
Clique table members: 18557.
MIP emphasis: balance optimality and feasibility.
MIP search method: dynamic search.
Parallel mode: opportunistic, using up to 40 threads.
Root relaxation solution time = 0.15 sec. (123.62 ticks)

        Nodes                                         Cuts/
   Node  Left     Objective  IInf  Best Integer    Best Bound    ItCnt     Gap

*     0+    0                            0.0000  -1.31000e+13              --- 
*     0+    0                      -4.29000e+12  -1.31000e+13           205.36%
*     0+    0                      -6.48000e+12  -1.31000e+13           102.16%
      0     0  -1.30900e+13   101  -6.48000e+12  -1.30900e+13     2742  102.01%
*     0+    0                      -1.30900e+13  -1.30900e+13             0.00%
      0     0  -1.30900e+13   123  -1.30900e+13      Cuts: 53     3756    0.00%
      0     0  -1.30900e+13   161  -1.30900e+13      Cuts: 72     4326    0.00%
*     0+    0                      -1.30900e+13  -1.30900e+13             0.00%
      0     0  -1.00000e+75     0  -1.30900e+13  -1.30900e+13     4326    0.00%
*     0+    0                      -1.30900e+13  -1.30900e+13             0.00%
      0    18        cutoff        -1.30900e+13  -1.30900e+13     5217    0.00%
Elapsed time = 2.02 sec. (859.95 ticks, tree = 0.02 MB, solutions = 17)
   1470    48  -1.30900e+13    27  -1.30900e+13  -1.30900e+13    27262    0.00%
   3163    63        cutoff        -1.30900e+13  -1.30900e+13    38672    0.00%
   4015   255        cutoff        -1.30900e+13  -1.30900e+13    76228    0.00%
   4632   148        cutoff        -1.30900e+13  -1.30900e+13   155830    0.00%
   5395   112        cutoff        -1.30900e+13  -1.30900e+13   184892    0.00%
   6100   128        cutoff        -1.30900e+13  -1.30900e+13   168362    0.00%
   6883   111  -1.30900e+13    32  -1.30900e+13  -1.30900e+13   185008    0.00%
   7654    32  -1.30900e+13    23  -1.30900e+13  -1.30900e+13   332010    0.00%
   8194    20  -1.30900e+13    74  -1.30900e+13  -1.30900e+13   414296    0.00%

GUB cover cuts applied:  4
Clique cuts applied:  4
Cover cuts applied:  568
Flow cuts applied:  2
Mixed integer rounding cuts applied:  2
Zero-half cuts applied:  9
Lift and project cuts applied:  7
Gomory fractional cuts applied:  20

Root node processing (before b&c):
  Real time             =    1.13 sec. (855.43 ticks)
Parallel b&c, 40 threads:
  Real time             =    5.22 sec. (2723.61 ticks)
  Sync time (average)   =    1.88 sec.
  Wait time (average)   =    0.00 sec.
                          ------------
Total (root+branch&cut) =    6.36 sec. (3579.04 ticks)

Solution pool: 38 solutions saved.

MIP - Integer optimal solution:  Objective = -1.3089998891e+13
Solution time =    6.48 sec.  Iterations = 420946  Nodes = 8875
Deterministic time = 3579.07 ticks  (552.04 ticks/sec)

CPLEX> Solution 'p39' written to file 'ee.sol'.
CPLEX> 